; benchmark generated from python API
(set-info :status unknown)
(declare-datatypes ((IntState 0)) (((Mk1 (val1 Int)) (Mk2 (val2 Int)))))
 (declare-fun c_main_~j~6 () Int)
(declare-fun c_main_~i~6 () Int)
(declare-fun c_main_~k~6 () Int)
(assert
 (let (($x145 (<= (* 2 c_main_~i~6) c_main_~j~6)))
 (let (($x86 (<= 2 c_main_~i~6)))
 (let (($x119 (<= 3 c_main_~i~6)))
 (let (($x71 (<= 1 c_main_~i~6)))
 (let (($x120 (exists ((main_~i~6_st IntState) (val!89 Int) )(let (($x81 (and (<= c_main_~k~6 (val2 main_~i~6_st)) (<= 3 (val2 main_~i~6_st)) (<= (* 2 (val2 main_~i~6_st)) c_main_~j~6))))
 (let (($x52 (not (= main_~i~6_st (Mk1 val!89)))))
 (and $x52 $x81))))
 ))
 (let (($x175 (<= 0 c_main_~i~6)))
 (let (($x149 (and (<= c_main_~k~6 c_main_~i~6) $x145 $x119)))
 (and $x149 (not (and $x175 $x120 $x71 $x119 $x86 $x145)))))))))))
(check-sat)
